(set-logic QF_S)
(declare-fun var0 () String)
(declare-fun var1 () String)
(declare-fun var2 () String)
(declare-fun var3 () Int)
(declare-fun var4 () String)
(declare-fun var5 () Int)
(declare-fun var6 () Int)
(assert (< (str.len var0) (str.len "P5B")))
(assert (<= (str.indexof var1 var2 var3) (str.to.int var4)))
(assert (<= (str.indexof var2 var4 var5) (str.to.int "t@x91@")))
(assert (str.in.re (str.substr (str.at var0 var6) (str.len var0) (str.to.int var1)) (re.* re.allchar)))
(check-sat)